
Gurobi 8.1.1 (win64) logging started 11/28/19 10:00:57

Changed value of parameter LogFile to logs/drand/rlt/drand-07-075-1.log
   Prev: gurobi.log  Default: 
Changed value of parameter LogToConsole to 0
   Prev: 1  Min: 0  Max: 1  Default: 1
Changed value of parameter TimeLimit to 3600.0
   Prev: 1e+100  Min: 0.0  Max: 1e+100  Default: 1e+100
Optimize a model with 128341 rows, 43071 columns and 301205 nonzeros
Variable types: 0 continuous, 43071 integer (293 binary)
Coefficient statistics:
  Matrix range     [1e+00, 1e+00]
  Objective range  [1e+00, 1e+00]
  Bounds range     [1e+00, 1e+00]
  RHS range        [1e+00, 1e+00]
Presolve time: 1.40s
Presolved: 128341 rows, 43071 columns, 301205 nonzeros
Variable types: 0 continuous, 43071 integer (43071 binary)
Found heuristic solution: objective 8.0000000

Root simplex log...

Iteration    Objective       Primal Inf.    Dual Inf.      Time
    2928    1.3066426e+00   1.141590e+03   0.000000e+00      5s
    5130    1.3102707e+00   0.000000e+00   0.000000e+00      8s

Root relaxation: objective 1.310271e+00, 5130 iterations, 6.32 seconds

    Nodes    |    Current Node    |     Objective Bounds      |     Work
 Expl Unexpl |  Obj  Depth IntInf | Incumbent    BestBd   Gap | It/Node Time

     0     0    1.31027    0 1941    8.00000    1.31027  83.6%     -   12s
H    0     0                       7.0000000    1.31027  81.3%     -   18s
     0     0    1.38265    0 1653    7.00000    1.38265  80.2%     -   29s
     0     0    1.43536    0 1568    7.00000    1.43536  79.5%     -   47s
     0     0    1.49575    0 1573    7.00000    1.49575  78.6%     -   52s
     0     0    1.49604    0 1557    7.00000    1.49604  78.6%     -   62s
     0     0    1.53230    0 1446    7.00000    1.53230  78.1%     -   68s
     0     0    1.53291    0 1606    7.00000    1.53291  78.1%     -  123s
     0     0    1.55889    0 1478    7.00000    1.55889  77.7%     -  130s
     0     0    1.56189    0 1576    7.00000    1.56189  77.7%     -  171s
     0     0    1.58202    0 1577    7.00000    1.58202  77.4%     -  180s
     0     0    1.58420    0 1528    7.00000    1.58420  77.4%     -  193s
     0     0    1.60717    0 1475    7.00000    1.60717  77.0%     -  202s
     0     0    1.60805    0 1507    7.00000    1.60805  77.0%     -  213s
     0     0    1.62750    0 1372    7.00000    1.62750  76.7%     -  222s
     0     0    1.62774    0 1323    7.00000    1.62774  76.7%     -  232s
     0     0    1.64002    0 1427    7.00000    1.64002  76.6%     -  242s
     0     0    1.65183    0 1513    7.00000    1.65183  76.4%     -  264s
     0     0    1.65185    0 1515    7.00000    1.65185  76.4%     -  289s
     0     0    1.66256    0 1375    7.00000    1.66256  76.2%     -  299s
     0     0    1.66284    0 1392    7.00000    1.66284  76.2%     -  313s
     0     0    1.67050    0 1475    7.00000    1.67050  76.1%     -  324s
     0     0    1.67058    0 1463    7.00000    1.67058  76.1%     -  349s
     0     0    1.67492    0 1530    7.00000    1.67492  76.1%     -  358s
     0     0    1.67530    0 1519    7.00000    1.67530  76.1%     -  364s
     0     0    1.67998    0 1502    7.00000    1.67998  76.0%     -  375s
     0     0    1.68001    0 1500    7.00000    1.68001  76.0%     -  460s
     0     0    1.68497    0 1459    7.00000    1.68497  75.9%     -  470s
     0     0    1.68515    0 1452    7.00000    1.68515  75.9%     -  477s
     0     0    1.68851    0 1431    7.00000    1.68851  75.9%     -  488s
     0     0    1.68859    0 1430    7.00000    1.68859  75.9%     -  496s
     0     0    1.69090    0 1465    7.00000    1.69090  75.8%     -  505s
     0     0    1.69112    0 1436    7.00000    1.69112  75.8%     -  514s
     0     0    1.69363    0 1459    7.00000    1.69363  75.8%     -  524s
     0     0    1.69365    0 1487    7.00000    1.69365  75.8%     -  558s
     0     0    1.69662    0 1401    7.00000    1.69662  75.8%     -  571s
     0     0    1.69666    0 1388    7.00000    1.69666  75.8%     -  576s
     0     0    1.69886    0 1548    7.00000    1.69886  75.7%     -  589s
     0     0    1.69900    0 1518    7.00000    1.69900  75.7%     -  621s
     0     0    1.69902    0 1518    7.00000    1.69902  75.7%     -  622s
     0     0    1.70163    0 1471    7.00000    1.70163  75.7%     -  635s
     0     0    1.70170    0 1498    7.00000    1.70170  75.7%     -  647s
     0     0    1.70398    0 1506    7.00000    1.70398  75.7%     -  661s
     0     0    1.70410    0 1482    7.00000    1.70410  75.7%     -  770s
     0     0    1.70410    0 1492    7.00000    1.70410  75.7%     -  771s
     0     0    1.70558    0 1398    7.00000    1.70558  75.6%     -  782s
     0     0    1.70563    0 1419    7.00000    1.70563  75.6%     -  793s
     0     0    1.70727    0 1487    7.00000    1.70727  75.6%     -  807s
     0     0    1.70728    0 1481    7.00000    1.70728  75.6%     -  815s
     0     0    1.70902    0 1494    7.00000    1.70902  75.6%     -  830s
     0     0    1.70905    0 1488    7.00000    1.70905  75.6%     -  841s
     0     0    1.71061    0 1439    7.00000    1.71061  75.6%     -  855s
     0     0    1.71061    0 1451    7.00000    1.71061  75.6%     -  869s
     0     0    1.71222    0 1492    7.00000    1.71222  75.5%     -  883s
     0     0    1.71355    0 1500    7.00000    1.71355  75.5%     -  928s
     0     0    1.71356    0 1503    7.00000    1.71356  75.5%     -  940s
     0     0    1.71465    0 1468    7.00000    1.71465  75.5%     -  952s
     0     0    1.71465    0 1468    7.00000    1.71465  75.5%     -  953s
     0     2    1.71465    0 1468    7.00000    1.71465  75.5%     - 2347s
     1     4    1.71485    1 1478    7.00000    1.71466  75.5%  1825 2388s
     3     6    1.71510    2 1391    7.00000    1.71487  75.5%  5612 2395s
     7     8    1.71632    4 1422    7.00000    1.71487  75.5%  3340 2411s
     9    10    1.71712    5 1389    7.00000    1.71487  75.5%  3028 2420s
    11    12    1.71799    6 1409    7.00000    1.71487  75.5%  2780 2428s
    13    14    1.71876    7 1348    7.00000    1.71487  75.5%  2591 2435s
    15    16    1.71957    8 1287    7.00000    1.71487  75.5%  2482 2443s
    17    18    1.72079    9 1294    7.00000    1.71487  75.5%  2408 2451s
    19    20    1.72170   10 1251    7.00000    1.71487  75.5%  2324 2459s
    21    22    1.72254   11 1236    7.00000    1.71487  75.5%  2247 2466s
    24    25    1.72412   12 1250    7.00000    1.71487  75.5%  2117 2473s
    27    28    1.72521   13 1233    7.00000    1.71487  75.5%  1995 2696s
    29    30    1.72632   14 1198    7.00000    1.71487  75.5%  1937 2702s
    32    33    1.72895   15 1187    7.00000    1.71487  75.5%  1880 2710s
    35    36    1.73067   16 1167    7.00000    1.71487  75.5%  1809 2716s
    38    39    1.73244   17 1156    7.00000    1.71487  75.5%  1741 2724s
    42    43    1.73542   18 1125    7.00000    1.71487  75.5%  1667 2731s
    45    46    1.73852   19 1120    7.00000    1.71487  75.5%  1631 2737s
    48    49    1.73969   20 1124    7.00000    1.71487  75.5%  1588 2747s
    52    53    1.74870   22 1114    7.00000    1.71487  75.5%  1576 2753s
    56    57    1.75202   23 1128    7.00000    1.71487  75.5%  1517 3047s
    58    59    1.75568   24 1159    7.00000    1.71487  75.5%  1495 3056s
    63    64    1.76822   26 1102    7.00000    1.71487  75.5%  1466 3067s
    69    70    1.78863   28 1055    7.00000    1.71487  75.5%  1416 3076s
    76    77    1.81478   30 1059    7.00000    1.71487  75.5%  1347 3085s
    83    84    1.89005   33  896    7.00000    1.71487  75.5%  1289 3394s
    87    88    1.95766   35  812    7.00000    1.71487  75.5%  1245 3402s
   102   103    2.33942   44  656    7.00000    1.71487  75.5%  1155 3410s
   124   125    3.06908   55  394    7.00000    1.71487  75.5%  1026 3417s
   150   148    5.52211   67  343    7.00000    1.71511  75.5%   904 3455s
   175   171    2.57663    3 1767    7.00000    1.71511  75.5%   894 3467s
   194   190    2.58162    4 1738    7.00000    1.71511  75.5%   834 3475s
   216   207    2.58651    6 1721    7.00000    1.71511  75.5%   773 3481s
   240   226    2.59123    8 1694    7.00000    1.71511  75.5%   716 3517s
   244   231    2.59834   11 1662    7.00000    1.71520  75.5%   761 3526s
   250   236    2.60477   15 1619    7.00000    1.71520  75.5%   760 3533s
   256   241    2.61264   19 1584    7.00000    1.71520  75.5%   759 3540s
   262   247    2.61984   22 1534    7.00000    1.71520  75.5%   758 3548s
   271   256    2.62774   26 1485    7.00000    1.71520  75.5%   750 3556s
   280   265    2.63494   30 1520    7.00000    1.71520  75.5%   742 3564s
   291   276    2.64480   35 1380    7.00000    1.71520  75.5%   732 3573s
   300   285    2.65469   40 1407    7.00000    1.71520  75.5%   728 3583s
   311   296    2.67722   46 1397    7.00000    1.71520  75.5%   722 3593s
   321   304    2.69659   50 1409    7.00000    1.71520  75.5%   718 3600s

Cutting planes:
  MIR: 2
  Zero half: 191

Explored 329 nodes (363083 simplex iterations) in 3600.05 seconds
Thread count was 4 (of 4 available processors)

Solution count 2: 7 8 

Time limit reached
Best objective 7.000000000000e+00, best bound 2.000000000000e+00, gap 71.4286%
